NAME          
ROWS
 N  OBJ
 L  c1
 L  c2
 L  c3
COLUMNS
    MARKER    'MARKER'                 'INTORG'
    x[1]      c1        204
    x[1]      c2        249
    x[1]      c3        822
    x[1]      OBJ       -573
    x[2]      c1        590
    x[2]      c2        335
    x[2]      c3        324
    x[2]      OBJ       -486
    x[3]      c1        29
    x[3]      c2        605
    x[3]      c3        813
    x[3]      OBJ       -22
    x[4]      c1        683
    x[4]      c2        731
    x[4]      c3        379
    x[4]      OBJ       -945
    x[5]      c1        224
    x[5]      c2        487
    x[5]      c3        100
    x[5]      OBJ       -832
    x[6]      c1        45
    x[6]      c2        833
    x[6]      c3        248
    x[6]      OBJ       -591
    x[7]      c1        870
    x[7]      c2        468
    x[7]      c3        412
    x[7]      OBJ       -150
    x[8]      c1        728
    x[8]      c2        313
    x[8]      c3        353
    x[8]      OBJ       -296
    x[9]      c1        465
    x[9]      c2        9
    x[9]      c3        311
    x[9]      OBJ       -196
    x[10]     c1        399
    x[10]     c2        524
    x[10]     c3        281
    x[10]     OBJ       -246
    x[11]     c1        442
    x[11]     c2        816
    x[11]     c3        800
    x[11]     OBJ       -740
    x[12]     c1        534
    x[12]     c2        935
    x[12]     c3        392
    x[12]     OBJ       -738
    x[13]     c1        858
    x[13]     c2        878
    x[13]     c3        384
    x[13]     OBJ       -258
    x[14]     c1        771
    x[14]     c2        713
    x[14]     c3        486
    x[14]     OBJ       -996
    x[15]     c1        133
    x[15]     c2        166
    x[15]     c3        451
    x[15]     OBJ       -556
    x[16]     c1        236
    x[16]     c2        163
    x[16]     c3        975
    x[16]     OBJ       -653
    x[17]     c1        960
    x[17]     c2        751
    x[17]     c3        270
    x[17]     OBJ       -94
    x[18]     c1        110
    x[18]     c2        271
    x[18]     c3        350
    x[18]     OBJ       -227
    x[19]     c1        872
    x[19]     c2        898
    x[19]     c3        804
    x[19]     OBJ       -584
    x[20]     c1        5
    x[20]     c2        135
    x[20]     c3        357
    x[20]     OBJ       -762
    x[21]     c1        285
    x[21]     c2        644
    x[21]     c3        643
    x[21]     OBJ       -489
    x[22]     c1        240
    x[22]     c2        340
    x[22]     c3        782
    x[22]     OBJ       -220
    x[23]     c1        947
    x[23]     c2        582
    x[23]     c3        462
    x[23]     OBJ       -894
    x[24]     c1        636
    x[24]     c2        748
    x[24]     c3        243
    x[24]     OBJ       -879
    x[25]     c1        616
    x[25]     c2        102
    x[25]     c3        86
    x[25]     OBJ       -67
RHS
    rhs       c1        5941
    rhs       c2        6348
    rhs       c3        5764
RANGES
BOUNDS
 LO bounds    x[1]      0
 PL bounds    x[1]
 LO bounds    x[2]      0
 PL bounds    x[2]
 LO bounds    x[3]      0
 PL bounds    x[3]
 LO bounds    x[4]      0
 PL bounds    x[4]
 LO bounds    x[5]      0
 PL bounds    x[5]
 LO bounds    x[6]      0
 PL bounds    x[6]
 LO bounds    x[7]      0
 PL bounds    x[7]
 LO bounds    x[8]      0
 PL bounds    x[8]
 LO bounds    x[9]      0
 PL bounds    x[9]
 LO bounds    x[10]     0
 PL bounds    x[10]
 LO bounds    x[11]     0
 PL bounds    x[11]
 LO bounds    x[12]     0
 PL bounds    x[12]
 LO bounds    x[13]     0
 PL bounds    x[13]
 LO bounds    x[14]     0
 PL bounds    x[14]
 LO bounds    x[15]     0
 PL bounds    x[15]
 LO bounds    x[16]     0
 PL bounds    x[16]
 LO bounds    x[17]     0
 PL bounds    x[17]
 LO bounds    x[18]     0
 PL bounds    x[18]
 LO bounds    x[19]     0
 PL bounds    x[19]
 LO bounds    x[20]     0
 PL bounds    x[20]
 LO bounds    x[21]     0
 PL bounds    x[21]
 LO bounds    x[22]     0
 PL bounds    x[22]
 LO bounds    x[23]     0
 PL bounds    x[23]
 LO bounds    x[24]     0
 PL bounds    x[24]
 LO bounds    x[25]     0
 PL bounds    x[25]
ENDATA
